Route #1: 47 44 10 5 8 27 51
Route #2: 36 1 30 18 20 42
Route #3: 21 11 28 3 31 24 39 14 23
Route #4: 4 45 12 50 22 17 49 15 19 32 34 16
Route #5: 26 46 13 9 38 48 2
Route #6: 43 7 33 35 29 37
Route #7: 41 25 6 40
Cost 765